pair_style  sw
pair_coeff     	*	*	CSH.sw	C





